\Problem name: compact

Minimize
OBJROW: C
Subject To
ord(0,1):  - x(0,1) + x(0,2) >= 7
ord(0,2):  x(0,0) - x(0,2) >= 7
ord(1,1):  x(1,0) - x(1,1) >= 4
ord(1,2):  - x(1,0) + x(1,2) >= 3
ord(2,1):  - x(2,1) + x(2,2) >= 7
ord(2,2):  x(2,0) - x(2,2) >= 6
triangle2(0,1,0):  y(0,1,0) + y(1,0,0) = 1
triangle2(0,1,1):  y(0,1,1) + y(1,0,1) = 1
triangle2(0,1,2):  y(0,1,2) + y(1,0,2) = 1
triangle2(0,2,0):  y(0,2,0) + y(2,0,0) = 1
triangle2(0,2,1):  y(0,2,1) + y(2,0,1) = 1
triangle2(0,2,2):  y(0,2,2) + y(2,0,2) = 1
triangle2(1,2,0):  y(1,2,0) + y(2,1,0) = 1
triangle2(1,2,1):  y(1,2,1) + y(2,1,1) = 1
triangle2(1,2,2):  y(1,2,2) + y(2,1,2) = 1
MCLinV(0,1,0):  - x(0,0) + v(0,1,0)p - v(0,1,0)n + x(1,0) = -3
MCLinV(1,0,0):  x(0,0) + v(1,0,0)p - v(1,0,0)n - x(1,0) = -1
MCLin1(0,1,0):  u(0,1,0)p - u(0,1,0)n >= 0
MCLin2(0,1,0):  23 y(1,0,0) + u(0,1,0)p - u(0,1,0)n >= 0
MCLin3(0,1,0):  -36 y(1,0,0) - v(0,1,0)p + v(0,1,0)n + u(0,1,0)p - u(0,1,0)n >= -36
MCLin4(0,1,0):  -36 y(1,0,0) + u(0,1,0)p - u(0,1,0)n <= 0
MCLin5(0,1,0):  23 y(1,0,0) - v(0,1,0)p + v(0,1,0)n + u(0,1,0)p - u(0,1,0)n <= 23
MCLin6(1,0,0):  u(1,0,0)p - u(1,0,0)n >= 0
MCLin7(1,0,0):  40 y(0,1,0) + u(1,0,0)p - u(1,0,0)n >= 0
MCLin8(1,0,0):  -19 y(0,1,0) - v(1,0,0)p + v(1,0,0)n + u(1,0,0)p - u(1,0,0)n >= -19
MCLin9(1,0,0):  -19 y(0,1,0) + u(1,0,0)p - u(1,0,0)n <= 0
MCLin10(1,0,0):  40 y(0,1,0) - v(1,0,0)p + v(1,0,0)n + u(1,0,0)p - u(1,0,0)n <= 40
MCLinV(0,1,1):  - x(0,1) + v(0,1,1)p - v(0,1,1)n + x(1,1) = -4
MCLinV(1,0,1):  x(0,1) + v(1,0,1)p - v(1,0,1)n - x(1,1) = -7
MCLin1(0,1,1):  u(0,1,1)p - u(0,1,1)n >= 0
MCLin2(0,1,1):  34 y(1,0,1) + u(0,1,1)p - u(0,1,1)n >= 0
MCLin3(0,1,1):  -25 y(1,0,1) - v(0,1,1)p + v(0,1,1)n + u(0,1,1)p - u(0,1,1)n >= -25
MCLin4(0,1,1):  -25 y(1,0,1) + u(0,1,1)p - u(0,1,1)n <= 0
MCLin5(0,1,1):  34 y(1,0,1) - v(0,1,1)p + v(0,1,1)n + u(0,1,1)p - u(0,1,1)n <= 34
MCLin6(1,0,1):  u(1,0,1)p - u(1,0,1)n >= 0
MCLin7(1,0,1):  36 y(0,1,1) + u(1,0,1)p - u(1,0,1)n >= 0
MCLin8(1,0,1):  -23 y(0,1,1) - v(1,0,1)p + v(1,0,1)n + u(1,0,1)p - u(1,0,1)n >= -23
MCLin9(1,0,1):  -23 y(0,1,1) + u(1,0,1)p - u(1,0,1)n <= 0
MCLin10(1,0,1):  36 y(0,1,1) - v(1,0,1)p + v(1,0,1)n + u(1,0,1)p - u(1,0,1)n <= 36
MCLinV(0,1,2):  - x(0,2) + v(0,1,2)p - v(0,1,2)n + x(1,2) = -7
MCLinV(1,0,2):  x(0,2) + v(1,0,2)p - v(1,0,2)n - x(1,2) = -7
MCLin1(0,1,2):  u(0,1,2)p - u(0,1,2)n >= 0
MCLin2(0,1,2):  37 y(1,0,2) + u(0,1,2)p - u(0,1,2)n >= 0
MCLin3(0,1,2):  -22 y(1,0,2) - v(0,1,2)p + v(0,1,2)n + u(0,1,2)p - u(0,1,2)n >= -22
MCLin4(0,1,2):  -22 y(1,0,2) + u(0,1,2)p - u(0,1,2)n <= 0
MCLin5(0,1,2):  37 y(1,0,2) - v(0,1,2)p + v(0,1,2)n + u(0,1,2)p - u(0,1,2)n <= 37
MCLin6(1,0,2):  u(1,0,2)p - u(1,0,2)n >= 0
MCLin7(1,0,2):  36 y(0,1,2) + u(1,0,2)p - u(1,0,2)n >= 0
MCLin8(1,0,2):  -23 y(0,1,2) - v(1,0,2)p + v(1,0,2)n + u(1,0,2)p - u(1,0,2)n >= -23
MCLin9(1,0,2):  -23 y(0,1,2) + u(1,0,2)p - u(1,0,2)n <= 0
MCLin10(1,0,2):  36 y(0,1,2) - v(1,0,2)p + v(1,0,2)n + u(1,0,2)p - u(1,0,2)n <= 36
MCLinV(0,2,0):  - x(0,0) + v(0,2,0)p - v(0,2,0)n + x(2,0) = -2
MCLinV(2,0,0):  x(0,0) + v(2,0,0)p - v(2,0,0)n - x(2,0) = -1
MCLin1(0,2,0):  u(0,2,0)p - u(0,2,0)n >= 0
MCLin2(0,2,0):  30 y(2,0,0) + u(0,2,0)p - u(0,2,0)n >= 0
MCLin3(0,2,0):  -28 y(2,0,0) - v(0,2,0)p + v(0,2,0)n + u(0,2,0)p - u(0,2,0)n >= -28
MCLin4(0,2,0):  -28 y(2,0,0) + u(0,2,0)p - u(0,2,0)n <= 0
MCLin5(0,2,0):  30 y(2,0,0) - v(0,2,0)p + v(0,2,0)n + u(0,2,0)p - u(0,2,0)n <= 30
MCLin6(2,0,0):  u(2,0,0)p - u(2,0,0)n >= 0
MCLin7(2,0,0):  31 y(0,2,0) + u(2,0,0)p - u(2,0,0)n >= 0
MCLin8(2,0,0):  -27 y(0,2,0) - v(2,0,0)p + v(2,0,0)n + u(2,0,0)p - u(2,0,0)n >= -27
MCLin9(2,0,0):  -27 y(0,2,0) + u(2,0,0)p - u(2,0,0)n <= 0
MCLin10(2,0,0):  31 y(0,2,0) - v(2,0,0)p + v(2,0,0)n + u(2,0,0)p - u(2,0,0)n <= 31
MCLinV(0,2,1):  - x(0,1) + v(0,2,1)p - v(0,2,1)n + x(2,1) = -7
MCLinV(2,0,1):  x(0,1) + v(2,0,1)p - v(2,0,1)n - x(2,1) = -7
MCLin1(0,2,1):  u(0,2,1)p - u(0,2,1)n >= 0
MCLin2(0,2,1):  36 y(2,0,1) + u(0,2,1)p - u(0,2,1)n >= 0
MCLin3(0,2,1):  -22 y(2,0,1) - v(0,2,1)p + v(0,2,1)n + u(0,2,1)p - u(0,2,1)n >= -22
MCLin4(0,2,1):  -22 y(2,0,1) + u(0,2,1)p - u(0,2,1)n <= 0
MCLin5(0,2,1):  36 y(2,0,1) - v(0,2,1)p + v(0,2,1)n + u(0,2,1)p - u(0,2,1)n <= 36
MCLin6(2,0,1):  u(2,0,1)p - u(2,0,1)n >= 0
MCLin7(2,0,1):  36 y(0,2,1) + u(2,0,1)p - u(2,0,1)n >= 0
MCLin8(2,0,1):  -22 y(0,2,1) - v(2,0,1)p + v(2,0,1)n + u(2,0,1)p - u(2,0,1)n >= -22
MCLin9(2,0,1):  -22 y(0,2,1) + u(2,0,1)p - u(2,0,1)n <= 0
MCLin10(2,0,1):  36 y(0,2,1) - v(2,0,1)p + v(2,0,1)n + u(2,0,1)p - u(2,0,1)n <= 36
MCLinV(0,2,2):  - x(0,2) + v(0,2,2)p - v(0,2,2)n + x(2,2) = -6
MCLinV(2,0,2):  x(0,2) + v(2,0,2)p - v(2,0,2)n - x(2,2) = -7
MCLin1(0,2,2):  u(0,2,2)p - u(0,2,2)n >= 0
MCLin2(0,2,2):  35 y(2,0,2) + u(0,2,2)p - u(0,2,2)n >= 0
MCLin3(0,2,2):  -23 y(2,0,2) - v(0,2,2)p + v(0,2,2)n + u(0,2,2)p - u(0,2,2)n >= -23
MCLin4(0,2,2):  -23 y(2,0,2) + u(0,2,2)p - u(0,2,2)n <= 0
MCLin5(0,2,2):  35 y(2,0,2) - v(0,2,2)p + v(0,2,2)n + u(0,2,2)p - u(0,2,2)n <= 35
MCLin6(2,0,2):  u(2,0,2)p - u(2,0,2)n >= 0
MCLin7(2,0,2):  36 y(0,2,2) + u(2,0,2)p - u(2,0,2)n >= 0
MCLin8(2,0,2):  -22 y(0,2,2) - v(2,0,2)p + v(2,0,2)n + u(2,0,2)p - u(2,0,2)n >= -22
MCLin9(2,0,2):  -22 y(0,2,2) + u(2,0,2)p - u(2,0,2)n <= 0
MCLin10(2,0,2):  36 y(0,2,2) - v(2,0,2)p + v(2,0,2)n + u(2,0,2)p - u(2,0,2)n <= 36
MCLinV(1,2,0):  - x(1,0) + v(1,2,0)p - v(1,2,0)n + x(2,0) = -2
MCLinV(2,1,0):  x(1,0) + v(2,1,0)p - v(2,1,0)n - x(2,0) = -3
MCLin1(1,2,0):  u(1,2,0)p - u(1,2,0)n >= 0
MCLin2(1,2,0):  40 y(2,1,0) + u(1,2,0)p - u(1,2,0)n >= 0
MCLin3(1,2,0):  -19 y(2,1,0) - v(1,2,0)p + v(1,2,0)n + u(1,2,0)p - u(1,2,0)n >= -19
MCLin4(1,2,0):  -19 y(2,1,0) + u(1,2,0)p - u(1,2,0)n <= 0
MCLin5(1,2,0):  40 y(2,1,0) - v(1,2,0)p + v(1,2,0)n + u(1,2,0)p - u(1,2,0)n <= 40
MCLin6(2,1,0):  u(2,1,0)p - u(2,1,0)n >= 0
MCLin7(2,1,0):  24 y(1,2,0) + u(2,1,0)p - u(2,1,0)n >= 0
MCLin8(2,1,0):  -35 y(1,2,0) - v(2,1,0)p + v(2,1,0)n + u(2,1,0)p - u(2,1,0)n >= -35
MCLin9(2,1,0):  -35 y(1,2,0) + u(2,1,0)p - u(2,1,0)n <= 0
MCLin10(2,1,0):  24 y(1,2,0) - v(2,1,0)p + v(2,1,0)n + u(2,1,0)p - u(2,1,0)n <= 24
MCLinV(1,2,1):  - x(1,1) + v(1,2,1)p - v(1,2,1)n + x(2,1) = -7
MCLinV(2,1,1):  x(1,1) + v(2,1,1)p - v(2,1,1)n - x(2,1) = -4
MCLin1(1,2,1):  u(1,2,1)p - u(1,2,1)n >= 0
MCLin2(1,2,1):  36 y(2,1,1) + u(1,2,1)p - u(1,2,1)n >= 0
MCLin3(1,2,1):  -23 y(2,1,1) - v(1,2,1)p + v(1,2,1)n + u(1,2,1)p - u(1,2,1)n >= -23
MCLin4(1,2,1):  -23 y(2,1,1) + u(1,2,1)p - u(1,2,1)n <= 0
MCLin5(1,2,1):  36 y(2,1,1) - v(1,2,1)p + v(1,2,1)n + u(1,2,1)p - u(1,2,1)n <= 36
MCLin6(2,1,1):  u(2,1,1)p - u(2,1,1)n >= 0
MCLin7(2,1,1):  34 y(1,2,1) + u(2,1,1)p - u(2,1,1)n >= 0
MCLin8(2,1,1):  -25 y(1,2,1) - v(2,1,1)p + v(2,1,1)n + u(2,1,1)p - u(2,1,1)n >= -25
MCLin9(2,1,1):  -25 y(1,2,1) + u(2,1,1)p - u(2,1,1)n <= 0
MCLin10(2,1,1):  34 y(1,2,1) - v(2,1,1)p + v(2,1,1)n + u(2,1,1)p - u(2,1,1)n <= 34
MCLinV(1,2,2):  - x(1,2) + v(1,2,2)p - v(1,2,2)n + x(2,2) = -6
MCLinV(2,1,2):  x(1,2) + v(2,1,2)p - v(2,1,2)n - x(2,2) = -7
MCLin1(1,2,2):  u(1,2,2)p - u(1,2,2)n >= 0
MCLin2(1,2,2):  35 y(2,1,2) + u(1,2,2)p - u(1,2,2)n >= 0
MCLin3(1,2,2):  -24 y(2,1,2) - v(1,2,2)p + v(1,2,2)n + u(1,2,2)p - u(1,2,2)n >= -24
MCLin4(1,2,2):  -24 y(2,1,2) + u(1,2,2)p - u(1,2,2)n <= 0
MCLin5(1,2,2):  35 y(2,1,2) - v(1,2,2)p + v(1,2,2)n + u(1,2,2)p - u(1,2,2)n <= 35
MCLin6(2,1,2):  u(2,1,2)p - u(2,1,2)n >= 0
MCLin7(2,1,2):  37 y(1,2,2) + u(2,1,2)p - u(2,1,2)n >= 0
MCLin8(2,1,2):  -22 y(1,2,2) - v(2,1,2)p + v(2,1,2)n + u(2,1,2)p - u(2,1,2)n >= -22
MCLin9(2,1,2):  -22 y(1,2,2) + u(2,1,2)p - u(2,1,2)n <= 0
MCLin10(2,1,2):  37 y(1,2,2) - v(2,1,2)p + v(2,1,2)n + u(2,1,2)p - u(2,1,2)n <= 37
makespan(0):  C - x(0,0) >= 1
makespan(1):  C - x(1,2) >= 7
makespan(2):  C - x(2,0) >= 2
cut_clique_1(0,1):  0.96985 x(1,1) + 0.96071 x(2,1) >= 1
cut_clique_1(1,1):  0.95763 x(1,1) + 0.96764 x(2,1) >= 1
cut_clique_1(2,1):  0.96985 x(1,1) + 0.97061 x(2,1) >= 1
cut_clique_1(3,1):  0.97910 x(1,1) + 0.96304 x(2,1) >= 1
cut_clique_1(4,1):  0.96995 x(1,1) + 0.96100 x(2,1) >= 1
cut_clique_1(5,1):  0.98211 x(1,1) + 0.94624 x(2,1) >= 1
cut_clique_1(6,1):  0.98273 x(1,1) + 0.94186 x(2,1) >= 1
cut_clique_1(7,1):  0.97630 x(1,1) + 0.93596 x(2,1) >= 1
cut_clique_1(8,1):  0.99908 x(1,1) + 0.92736 x(2,1) >= 1
cut_clique_1(9,1):  0.99263 x(1,1) + 0.94624 x(2,1) >= 1
cut_clique_1(10,1):  0.98211 x(1,1) + 0.93732 x(2,1) >= 1
cut_clique_1(11,1):  0.95763 x(1,1) + 0.98699 x(2,1) >= 1
cut_clique_1(12,1):  0.96985 x(1,1) + 0.98032 x(2,1) >= 1
cut_clique_1(13,1):  0.96985 x(1,1) + 0.96100 x(2,1) >= 1
cut_clique_1(14,1):  0.96762 x(1,1) + 0.95764 x(2,1) >= 1
cut_clique_1(15,1):  0.99599 x(1,1) + 0.97032 x(2,1) >= 1
cut_clique_1(16,1):  0.97998 x(1,1) + 0.97032 x(2,1) >= 1
cut_clique_1(17,1):  0.98190 x(1,1) + 0.98673 x(2,1) >= 1
cut_clique_1(18,1):  0.98013 x(1,1) + 0.98333 x(2,1) >= 1
cut_clique_1(19,1):  0.95082 x(1,1) + 0.99127 x(2,1) >= 1
cut_clique_1(20,1):  0.94891 x(1,1) + 0.97698 x(2,1) >= 1
cut_clique_1(21,1):  0.98676 x(1,1) + 0.98699 x(2,1) >= 1
cut_clique_1(22,1):  0.97744 x(1,1) + 0.99139 x(2,1) >= 1
cut_clique_1(23,1):  0.98273 x(1,1) + 0.96070 x(2,1) >= 1
cut_clique_1(24,1):  0.91666 x(1,1) + 0.99698 x(2,1) >= 1
cut_clique_1(25,1):  0.98968 x(1,1) + 0.97698 x(2,1) >= 1
cut_clique_1(26,1):  0.96285 x(1,1) + 0.94624 x(2,1) >= 1
cut_clique_1(27,1):  0.93483 x(1,1) + 0.99435 x(2,1) >= 1
cut_clique_1(28,1):  0.99993 x(1,1) + 0.93912 x(2,1) >= 1
cut_clique_1(29,1):  0.98403 x(1,1) + 0.93671 x(2,1) >= 1
cut_clique_1(30,1):  0.99599 x(1,1) + 0.91287 x(2,1) >= 1
cut_clique_1(31,1):  0.99599 x(1,1) + 0.98590 x(2,1) >= 1
cut_clique_1(32,1):  0.95763 x(1,1) + 0.95660 x(2,1) >= 1
cut_clique_1(33,1):  0.96077 x(1,1) + 0.97032 x(2,1) >= 1
cut_clique_1(34,1):  0.98190 x(1,1) + 0.96739 x(2,1) >= 1
cut_clique_1(35,1):  0.97300 x(1,1) + 0.94186 x(2,1) >= 1
cut_clique_1(36,1):  0.97262 x(1,1) + 0.94216 x(2,1) >= 1
cut_clique_1(37,1):  0.97262 x(1,1) + 0.96100 x(2,1) >= 1
cut_clique_1(38,1):  0.98013 x(1,1) + 0.93650 x(2,1) >= 1
cut_clique_1(39,1):  0.95715 x(1,1) + 0.98699 x(2,1) >= 1
cut_clique_1(40,1):  0.95082 x(1,1) + 0.98136 x(2,1) >= 1
cut_clique_1(41,1):  0.92220 x(1,1) + 0.98699 x(2,1) >= 1
cut_clique_1(42,1):  0.97566 x(1,1) + 0.94718 x(2,1) >= 1
cut_clique_1(43,1):  0.99599 x(1,1) + 0.99576 x(2,1) >= 1
cut_clique_1(44,1):  0.99599 x(1,1) + 0.93150 x(2,1) >= 1
cut_clique_1(45,1):  0.97630 x(1,1) + 0.97496 x(2,1) >= 1
cut_clique_1(46,1):  0.98211 x(1,1) + 0.99355 x(2,1) >= 1
cut_clique_1(47,1):  0.99650 x(1,1) + 0.93755 x(2,1) >= 1
cut_clique_1(48,1):  0.96658 x(1,1) + 0.94152 x(2,1) >= 1
cut_clique_1(49,1):  0.95878 x(1,1) + 0.95265 x(2,1) >= 1
cut_clique_1(0,2):  0.08627 x(0,2) + 0.02860 x(1,2) >= 1
cut_clique_1(1,2):  0.08849 x(0,2) + 0.03339 x(1,2) >= 1
cut_clique_1(2,2):  0.09762 x(1,2) + 0.02656 x(2,2) >= 1
cut_clique_1(3,2):  0.09078 x(1,2) + 0.02656 x(2,2) >= 1
cut_clique_1(4,2):  0.08988 x(1,2) + 0.02656 x(2,2) >= 1
cut_clique_1(5,2):  0.09437 x(1,2) + 0.02656 x(2,2) >= 1
cut_clique_1(6,2):  0.09437 x(1,2) + 0.02496 x(2,2) >= 1
cut_clique_1(7,2):  0.09343 x(1,2) + 0.02496 x(2,2) >= 1
cut_clique_1(8,2):  0.09623 x(1,2) + 0.02496 x(2,2) >= 1
cut_clique_1(9,2):  0.09623 x(1,2) + 0.02696 x(2,2) >= 1
cut_clique_1(10,2):  0.09894 x(1,2) + 0.02538 x(2,2) >= 1
cut_clique_1(11,2):  0.08493 x(0,2) + 0.02973 x(1,2) >= 1
cut_clique_1(12,2):  0.09267 x(0,2) + 0.02623 x(1,2) >= 1
cut_clique_1(13,2):  0.09236 x(0,2) + 0.02527 x(1,2) >= 1
cut_clique_1(14,2):  0.08849 x(0,2) + 0.02769 x(1,2) >= 1
cut_clique_1(15,2):  0.08849 x(1,2) + 0.02841 x(2,2) >= 1
cut_clique_1(16,2):  0.09026 x(1,2) + 0.02841 x(2,2) >= 1
cut_clique_1(17,2):  0.08581 x(1,2) + 0.03149 x(2,2) >= 1
cut_clique_1(18,2):  0.08667 x(1,2) + 0.03149 x(2,2) >= 1
cut_clique_1(19,2):  0.08841 x(1,2) + 0.03149 x(2,2) >= 1
cut_clique_1(20,2):  0.08841 x(1,2) + 0.03117 x(2,2) >= 1
cut_clique_1(21,2):  0.08133 x(1,2) + 0.03117 x(2,2) >= 1
cut_clique_1(22,2):  0.08052 x(1,2) + 0.03117 x(2,2) >= 1
cut_clique_1(23,2):  0.08326 x(1,2) + 0.03121 x(2,2) >= 1
cut_clique_1(24,2):  0.08849 x(0,2) + 0.03043 x(1,2) >= 1
cut_clique_1(25,2):  0.08493 x(0,2) + 0.03106 x(1,2) >= 1
cut_clique_1(26,2):  0.09988 x(0,2) + 0.02174 x(1,2) >= 1
cut_clique_1(27,2):  0.10058 x(0,2) + 0.02353 x(1,2) >= 1
cut_clique_1(28,2):  0.09004 x(1,2) + 0.03471 x(2,2) >= 1
cut_clique_1(29,2):  0.08583 x(0,2) + 0.03078 x(1,2) >= 1
cut_clique_1(30,2):  0.09699 x(0,2) + 0.02690 x(1,2) >= 1
cut_clique_1(31,2):  0.09360 x(0,2) + 0.03106 x(1,2) >= 1
cut_clique_1(32,2):  0.08977 x(1,2) + 0.02724 x(2,2) >= 1
cut_clique_1(33,2):  0.08977 x(1,2) + 0.02806 x(2,2) >= 1
cut_clique_1(34,2):  0.09857 x(0,2) + 0.02494 x(1,2) >= 1
cut_clique_1(35,2):  0.08118 x(0,2) + 0.03275 x(1,2) >= 1
cut_clique_1(36,2):  0.09236 x(0,2) + 0.02717 x(1,2) >= 1
cut_clique_1(37,2):  0.09088 x(0,2) + 0.03106 x(1,2) >= 1
cut_clique_1(38,2):  0.09236 x(0,2) + 0.02690 x(1,2) >= 1
cut_clique_1(39,2):  0.08849 x(0,2) + 0.03478 x(1,2) >= 1
cut_clique_1(40,2):  0.08849 x(0,2) + 0.03272 x(1,2) >= 1
cut_clique_1(41,2):  0.09857 x(0,2) + 0.02353 x(1,2) >= 1
cut_clique_1(42,2):  0.09081 x(0,2) + 0.02623 x(1,2) >= 1
cut_clique_1(43,2):  0.08493 x(0,2) + 0.03121 x(1,2) >= 1
cut_clique_1(44,2):  0.08493 x(0,2) + 0.03059 x(1,2) >= 1
cut_clique_1(45,2):  0.09988 x(0,2) + 0.02498 x(1,2) >= 1
cut_clique_1(46,2):  0.08849 x(0,2) + 0.03106 x(1,2) >= 1
cut_clique_1(47,2):  0.08118 x(0,2) + 0.03560 x(1,2) >= 1
cut_clique_1(48,2):  0.08849 x(0,2) + 0.02991 x(1,2) >= 1
cut_clique_1(49,2):  0.07874 x(0,2) + 0.03275 x(1,2) >= 1
cut_clique_2(0,1):  0.95600 x(0,1) + 0.77119 x(2,1) >= 1
cut_clique_2(1,1):  0.56853 x(0,1) + 0.97786 x(2,1) >= 1
cut_clique_2(2,1):  0.96056 x(0,1) + 0.60633 x(2,1) >= 1
cut_clique_2(3,1):  0.97303 x(0,1) + 0.73644 x(2,1) >= 1
cut_clique_2(4,1):  0.88604 x(0,1) + 0.66666 x(2,1) >= 1
cut_clique_2(5,1):  0.89412 x(0,1) + 0.77119 x(2,1) >= 1
cut_clique_2(6,1):  0.59161 x(0,1) + 0.97786 x(2,1) >= 1
cut_clique_2(7,1):  0.83680 x(0,1) + 0.78113 x(2,1) >= 1
cut_clique_2(8,1):  0.88442 x(0,1) + 0.66666 x(2,1) >= 1
cut_clique_2(9,1):  0.96056 x(0,1) + 0.58323 x(2,1) >= 1
cut_clique_2(10,1):  0.82890 x(0,1) + 0.86154 x(2,1) >= 1
cut_clique_2(11,1):  0.88518 x(0,1) + 0.77119 x(2,1) >= 1
cut_clique_2(12,1):  0.94354 x(0,1) + 0.66950 x(2,1) >= 1
cut_clique_2(13,1):  0.76259 x(0,1) + 0.86154 x(2,1) >= 1
cut_clique_2(14,1):  0.65797 x(0,1) + 0.97712 x(2,1) >= 1
cut_clique_2(15,1):  0.75430 x(0,1) + 0.88636 x(2,1) >= 1
cut_clique_2(16,1):  0.94354 x(0,1) + 0.63160 x(2,1) >= 1
cut_clique_2(17,1):  0.77823 x(0,1) + 0.78113 x(2,1) >= 1
cut_clique_2(18,1):  0.88604 x(0,1) + 0.74073 x(2,1) >= 1
cut_clique_2(19,1):  0.75430 x(0,1) + 0.80578 x(2,1) >= 1
cut_clique_2(20,1):  0.97303 x(0,1) + 0.78799 x(2,1) >= 1
cut_clique_2(21,1):  0.97303 x(0,1) + 0.74859 x(2,1) >= 1
cut_clique_2(22,1):  0.58748 x(0,1) + 0.97712 x(2,1) >= 1
cut_clique_2(23,1):  0.74676 x(0,1) + 0.86154 x(2,1) >= 1
cut_clique_2(24,1):  0.99232 x(0,1) + 0.55546 x(2,1) >= 1
cut_clique_2(25,1):  0.59876 x(0,1) + 0.97712 x(2,1) >= 1
cut_clique_2(26,1):  0.98285 x(0,1) + 0.63160 x(2,1) >= 1
cut_clique_2(27,1):  0.65863 x(0,1) + 0.91992 x(2,1) >= 1
cut_clique_2(28,1):  0.98285 x(0,1) + 0.60153 x(2,1) >= 1
cut_clique_2(29,1):  0.74676 x(0,1) + 0.88636 x(2,1) >= 1
cut_clique_2(30,1):  0.99232 x(0,1) + 0.58323 x(2,1) >= 1
cut_clique_2(31,1):  0.74676 x(0,1) + 0.79772 x(2,1) >= 1
cut_clique_2(32,1):  0.74194 x(0,1) + 0.91655 x(2,1) >= 1
cut_clique_2(33,1):  0.85605 x(0,1) + 0.71083 x(2,1) >= 1
cut_clique_2(34,1):  0.74194 x(0,1) + 0.88985 x(2,1) >= 1
cut_clique_2(35,1):  0.86996 x(0,1) + 0.87145 x(2,1) >= 1
cut_clique_2(36,1):  0.82147 x(0,1) + 0.73644 x(2,1) >= 1
cut_clique_2(37,1):  0.94469 x(0,1) + 0.73644 x(2,1) >= 1
cut_clique_2(38,1):  0.85605 x(0,1) + 0.78113 x(2,1) >= 1
cut_clique_2(39,1):  0.68699 x(0,1) + 0.88985 x(2,1) >= 1
cut_clique_2(40,1):  0.65863 x(0,1) + 0.97864 x(2,1) >= 1
cut_clique_2(41,1):  0.62538 x(0,1) + 0.97786 x(2,1) >= 1
cut_clique_2(42,1):  0.95600 x(0,1) + 0.87145 x(2,1) >= 1
cut_clique_2(43,1):  0.97590 x(0,1) + 0.71083 x(2,1) >= 1
cut_clique_2(44,1):  0.83680 x(0,1) + 0.74859 x(2,1) >= 1
cut_clique_2(45,1):  0.89104 x(0,1) + 0.66666 x(2,1) >= 1
cut_clique_2(46,1):  0.88604 x(0,1) + 0.87145 x(2,1) >= 1
cut_clique_2(47,1):  0.97590 x(0,1) + 0.63264 x(2,1) >= 1
cut_clique_2(48,1):  0.83680 x(0,1) + 0.73003 x(2,1) >= 1
cut_clique_2(49,1):  0.89412 x(0,1) + 0.76356 x(2,1) >= 1
cut_clique_2(0,2):  0.02171 x(0,2) + 0.11126 x(2,2) >= 1
cut_clique_2(1,2):  0.01976 x(0,2) + 0.11126 x(2,2) >= 1
cut_clique_2(2,2):  0.01976 x(0,2) + 0.10792 x(2,2) >= 1
cut_clique_2(3,2):  0.02154 x(0,2) + 0.10792 x(2,2) >= 1
cut_clique_2(4,2):  0.01895 x(0,2) + 0.10792 x(2,2) >= 1
cut_clique_2(5,2):  0.01502 x(0,2) + 0.11627 x(2,2) >= 1
cut_clique_2(6,2):  0.01725 x(0,2) + 0.11739 x(2,2) >= 1
cut_clique_2(7,2):  0.00903 x(0,2) + 0.12633 x(2,2) >= 1
cut_clique_2(8,2):  0.01786 x(0,2) + 0.10992 x(2,2) >= 1
cut_clique_2(9,2):  0.01786 x(0,2) + 0.11102 x(2,2) >= 1
cut_clique_2(10,2):  0.01947 x(0,2) + 0.11102 x(2,2) >= 1
cut_clique_2(11,2):  0.01947 x(0,2) + 0.10769 x(2,2) >= 1
cut_clique_2(12,2):  0.01927 x(0,2) + 0.10769 x(2,2) >= 1
cut_clique_2(13,2):  0.01927 x(0,2) + 0.10875 x(2,2) >= 1
cut_clique_2(14,2):  0.02062 x(0,2) + 0.10875 x(2,2) >= 1
cut_clique_2(15,2):  0.02309 x(0,2) + 0.10875 x(2,2) >= 1
cut_clique_2(16,2):  0.02171 x(0,2) + 0.10875 x(2,2) >= 1
cut_clique_2(17,2):  0.02388 x(0,2) + 0.10875 x(2,2) >= 1
cut_clique_2(18,2):  0.02460 x(0,2) + 0.10875 x(2,2) >= 1
cut_clique_2(19,2):  0.02460 x(0,2) + 0.10331 x(2,2) >= 1
cut_clique_2(20,2):  0.02410 x(0,2) + 0.10331 x(2,2) >= 1
cut_clique_2(21,2):  0.02145 x(0,2) + 0.10331 x(2,2) >= 1
cut_clique_2(22,2):  0.02188 x(0,2) + 0.10331 x(2,2) >= 1
cut_clique_2(23,2):  0.02188 x(0,2) + 0.11158 x(2,2) >= 1
cut_clique_2(24,2):  0.02188 x(0,2) + 0.10600 x(2,2) >= 1
cut_clique_2(25,2):  0.02188 x(0,2) + 0.10971 x(2,2) >= 1
cut_clique_2(26,2):  0.01904 x(0,2) + 0.10971 x(2,2) >= 1
cut_clique_2(27,2):  0.01808 x(0,2) + 0.10971 x(2,2) >= 1
cut_clique_2(28,2):  0.01881 x(0,2) + 0.10971 x(2,2) >= 1
cut_clique_2(29,2):  0.01787 x(0,2) + 0.10971 x(2,2) >= 1
cut_clique_2(30,2):  0.01930 x(0,2) + 0.11480 x(2,2) >= 1
cut_clique_2(31,2):  0.01968 x(0,2) + 0.11480 x(2,2) >= 1
cut_clique_2(32,2):  0.01003 x(0,2) + 0.12633 x(2,2) >= 1
cut_clique_2(33,2):  0.01967 x(0,2) + 0.11480 x(2,2) >= 1
cut_clique_2(34,2):  0.01829 x(0,2) + 0.11480 x(2,2) >= 1
cut_clique_2(35,2):  0.01609 x(0,2) + 0.11480 x(2,2) >= 1
cut_clique_2(36,2):  0.01593 x(0,2) + 0.11480 x(2,2) >= 1
cut_clique_2(37,2):  0.01561 x(0,2) + 0.11480 x(2,2) >= 1
cut_clique_2(38,2):  0.01546 x(0,2) + 0.11480 x(2,2) >= 1
cut_clique_2(39,2):  0.01639 x(0,2) + 0.11480 x(2,2) >= 1
cut_clique_2(40,2):  0.01884 x(0,2) + 0.11480 x(2,2) >= 1
cut_clique_2(41,2):  0.01787 x(0,2) + 0.11712 x(2,2) >= 1
cut_clique_2(42,2):  0.01554 x(0,2) + 0.11712 x(2,2) >= 1
cut_clique_2(43,2):  0.01508 x(0,2) + 0.11712 x(2,2) >= 1
cut_clique_2(44,2):  0.01387 x(0,2) + 0.11712 x(2,2) >= 1
cut_clique_2(45,2):  0.01724 x(0,2) + 0.11745 x(2,2) >= 1
cut_clique_2(46,2):  0.01500 x(0,2) + 0.11745 x(2,2) >= 1
cut_clique_2(47,2):  0.01500 x(0,2) + 0.11627 x(2,2) >= 1
cut_clique_2(48,2):  0.01440 x(0,2) + 0.11627 x(2,2) >= 1
cut_clique_2(49,2):  0.01598 x(0,2) + 0.11627 x(2,2) >= 1
cut_clique_3(0,1):  0.05123 x(0,1) + 0.06368 x(1,1) + 0.11465 x(2,1) >= 1
cut_clique_3(1,1):  0.05123 x(0,1) + 0.06368 x(1,1) + 0.11236 x(2,1) >= 1
cut_clique_3(2,1):  0.05072 x(0,1) + 0.06368 x(1,1) + 0.11236 x(2,1) >= 1
cut_clique_3(3,1):  0.05072 x(0,1) + 0.06814 x(1,1) + 0.11123 x(2,1) >= 1
cut_clique_3(4,1):  0.05072 x(0,1) + 0.06368 x(1,1) + 0.11123 x(2,1) >= 1
cut_clique_3(5,1):  0.05072 x(0,1) + 0.06814 x(1,1) + 0.11791 x(2,1) >= 1
cut_clique_3(6,1):  0.05072 x(0,1) + 0.06814 x(1,1) + 0.12380 x(2,1) >= 1
cut_clique_3(7,1):  0.05072 x(0,1) + 0.06814 x(1,1) + 0.14435 x(2,1) >= 1
cut_clique_3(8,1):  0.05072 x(0,1) + 0.06814 x(1,1) + 0.13618 x(2,1) >= 1
cut_clique_3(9,1):  0.05072 x(0,1) + 0.06609 x(1,1) + 0.14435 x(2,1) >= 1
cut_clique_3(10,1):  0.05072 x(0,1) + 0.06412 x(1,1) + 0.13339 x(2,1) >= 1
cut_clique_3(11,1):  0.05072 x(0,1) + 0.06412 x(1,1) + 0.11116 x(2,1) >= 1
cut_clique_3(12,1):  0.05072 x(0,1) + 0.06412 x(1,1) + 0.11459 x(2,1) >= 1
cut_clique_3(13,1):  0.05072 x(0,1) + 0.06412 x(1,1) + 0.14435 x(2,1) >= 1
cut_clique_3(14,1):  0.05072 x(0,1) + 0.06412 x(1,1) + 0.12237 x(2,1) >= 1
cut_clique_3(15,1):  0.05072 x(0,1) + 0.06412 x(1,1) + 0.11634 x(2,1) >= 1
cut_clique_3(16,1):  0.05833 x(0,1) + 0.06412 x(1,1) + 0.11634 x(2,1) >= 1
cut_clique_3(17,1):  0.04534 x(0,1) + 0.07315 x(1,1) + 0.13120 x(2,1) >= 1
cut_clique_3(18,1):  0.04310 x(0,1) + 0.07534 x(1,1) + 0.13554 x(2,1) >= 1
cut_clique_3(19,1):  0.04310 x(0,1) + 0.07534 x(1,1) + 0.13283 x(2,1) >= 1
cut_clique_3(20,1):  0.04486 x(0,1) + 0.07313 x(1,1) + 0.13809 x(2,1) >= 1
cut_clique_3(21,1):  0.05072 x(0,1) + 0.06412 x(1,1) + 0.11814 x(2,1) >= 1
cut_clique_3(22,1):  0.05072 x(0,1) + 0.06412 x(1,1) + 0.11871 x(2,1) >= 1
cut_clique_3(23,1):  0.04630 x(0,1) + 0.07237 x(1,1) + 0.13522 x(2,1) >= 1
cut_clique_3(24,1):  0.04773 x(0,1) + 0.07054 x(1,1) + 0.12573 x(2,1) >= 1
cut_clique_3(25,1):  0.04534 x(0,1) + 0.07315 x(1,1) + 0.13775 x(2,1) >= 1
cut_clique_3(26,1):  0.05072 x(0,1) + 0.06412 x(1,1) + 0.12703 x(2,1) >= 1
cut_clique_3(27,1):  0.05072 x(0,1) + 0.06477 x(1,1) + 0.14435 x(2,1) >= 1
cut_clique_3(28,1):  0.05072 x(0,1) + 0.06412 x(1,1) + 0.12116 x(2,1) >= 1
cut_clique_3(29,1):  0.04553 x(0,1) + 0.07157 x(1,1) + 0.12566 x(2,1) >= 1
cut_clique_3(30,1):  0.04674 x(0,1) + 0.07105 x(1,1) + 0.13120 x(2,1) >= 1
cut_clique_3(31,1):  0.04674 x(0,1) + 0.07034 x(1,1) + 0.13120 x(2,1) >= 1
cut_clique_3(32,1):  0.04630 x(0,1) + 0.07165 x(1,1) + 0.13522 x(2,1) >= 1
cut_clique_3(33,1):  0.04630 x(0,1) + 0.07054 x(1,1) + 0.13941 x(2,1) >= 1
cut_clique_3(34,1):  0.04879 x(0,1) + 0.07157 x(1,1) + 0.13455 x(2,1) >= 1
cut_clique_3(35,1):  0.04879 x(0,1) + 0.07157 x(1,1) + 0.14127 x(2,1) >= 1
cut_clique_3(36,1):  0.04879 x(0,1) + 0.07157 x(1,1) + 0.12573 x(2,1) >= 1
cut_clique_3(37,1):  0.04879 x(0,1) + 0.07157 x(1,1) + 0.11693 x(2,1) >= 1
cut_clique_3(38,1):  0.04879 x(0,1) + 0.06870 x(1,1) + 0.11693 x(2,1) >= 1
cut_clique_3(39,1):  0.04879 x(0,1) + 0.06870 x(1,1) + 0.12161 x(2,1) >= 1
cut_clique_3(40,1):  0.04879 x(0,1) + 0.06939 x(1,1) + 0.12161 x(2,1) >= 1
cut_clique_3(41,1):  0.05123 x(0,1) + 0.06939 x(1,1) + 0.12161 x(2,1) >= 1
cut_clique_3(42,1):  0.04630 x(0,1) + 0.07054 x(1,1) + 0.12573 x(2,1) >= 1
cut_clique_3(43,1):  0.04630 x(0,1) + 0.07054 x(1,1) + 0.12447 x(2,1) >= 1
cut_clique_3(44,1):  0.05123 x(0,1) + 0.06922 x(1,1) + 0.11553 x(2,1) >= 1
cut_clique_3(45,1):  0.05123 x(0,1) + 0.06922 x(1,1) + 0.12824 x(2,1) >= 1
cut_clique_3(46,1):  0.05123 x(0,1) + 0.06922 x(1,1) + 0.12439 x(2,1) >= 1
cut_clique_3(47,1):  0.05123 x(0,1) + 0.06368 x(1,1) + 0.12439 x(2,1) >= 1
cut_clique_3(48,1):  0.05123 x(0,1) + 0.06368 x(1,1) + 0.11817 x(2,1) >= 1
cut_clique_3(49,1):  0.05123 x(0,1) + 0.06368 x(1,1) + 0.11699 x(2,1) >= 1
cut_clique_3(0,2):  0.03179 x(1,2) + 0.08782 x(2,2) >= 1
cut_clique_3(1,2):  0.03051 x(1,2) + 0.08782 x(2,2) >= 1
cut_clique_3(2,2):  0.02938 x(1,2) + 0.08917 x(2,2) >= 1
cut_clique_3(3,2):  0.02908 x(1,2) + 0.08917 x(2,2) >= 1
cut_clique_3(4,2):  0.03295 x(1,2) + 0.08560 x(2,2) >= 1
cut_clique_3(5,2):  0.03020 x(1,2) + 0.08946 x(2,2) >= 1
cut_clique_3(6,2):  0.02960 x(1,2) + 0.08946 x(2,2) >= 1
cut_clique_3(7,2):  0.02960 x(1,2) + 0.08856 x(2,2) >= 1
cut_clique_3(8,2):  0.02793 x(1,2) + 0.09241 x(2,2) >= 1
cut_clique_3(9,2):  0.02759 x(1,2) + 0.09207 x(2,2) >= 1
Bounds
 0 <= C <= 44
 14 <= x(0,0) <= 43
 0 <= y(0,1,0) <= 1
 0 <= y(1,0,0) <= 1
 0 <= v(0,1,0)p <= 36
 0 <= v(0,1,0)n <= 23
 0 <= v(1,0,0)p <= 19
 0 <= v(1,0,0)n <= 40
 0 <= u(0,1,0)p <= 440
 0 <= u(0,1,0)n <= 440
 0 <= u(1,0,0)p <= 440
 0 <= u(1,0,0)n <= 440
 0 <= y(0,2,0) <= 1
 0 <= y(2,0,0) <= 1
 0 <= v(0,2,0)p <= 28
 0 <= v(0,2,0)n <= 30
 0 <= v(2,0,0)p <= 27
 0 <= v(2,0,0)n <= 31
 0 <= u(0,2,0)p <= 440
 0 <= u(0,2,0)n <= 440
 0 <= u(2,0,0)p <= 440
 0 <= u(2,0,0)n <= 440
 4 <= x(1,0) <= 34
 0 <= y(1,2,0) <= 1
 0 <= y(2,1,0) <= 1
 0 <= v(1,2,0)p <= 19
 0 <= v(1,2,0)n <= 40
 0 <= v(2,1,0)p <= 35
 0 <= v(2,1,0)n <= 24
 0 <= u(1,2,0)p <= 440
 0 <= u(1,2,0)n <= 440
 0 <= u(2,1,0)p <= 440
 0 <= u(2,1,0)n <= 440
 13 <= x(2,0) <= 42
 0 <= x(0,1) <= 29
 0 <= y(0,1,1) <= 1
 0 <= y(1,0,1) <= 1
 0 <= v(0,1,1)p <= 25
 0 <= v(0,1,1)n <= 34
 0 <= v(1,0,1)p <= 23
 0 <= v(1,0,1)n <= 36
 0 <= u(0,1,1)p <= 440
 0 <= u(0,1,1)n <= 440
 0 <= u(1,0,1)p <= 440
 0 <= u(1,0,1)n <= 440
 0 <= y(0,2,1) <= 1
 0 <= y(2,0,1) <= 1
 0 <= v(0,2,1)p <= 22
 0 <= v(0,2,1)n <= 36
 0 <= v(2,0,1)p <= 22
 0 <= v(2,0,1)n <= 36
 0 <= u(0,2,1)p <= 440
 0 <= u(0,2,1)n <= 440
 0 <= u(2,0,1)p <= 440
 0 <= u(2,0,1)n <= 440
 0 <= x(1,1) <= 30
 0 <= y(1,2,1) <= 1
 0 <= y(2,1,1) <= 1
 0 <= v(1,2,1)p <= 23
 0 <= v(1,2,1)n <= 36
 0 <= v(2,1,1)p <= 25
 0 <= v(2,1,1)n <= 34
 0 <= u(1,2,1)p <= 440
 0 <= u(1,2,1)n <= 440
 0 <= u(2,1,1)p <= 440
 0 <= u(2,1,1)n <= 440
 0 <= x(2,1) <= 29
 7 <= x(0,2) <= 36
 0 <= y(0,1,2) <= 1
 0 <= y(1,0,2) <= 1
 0 <= v(0,1,2)p <= 22
 0 <= v(0,1,2)n <= 37
 0 <= v(1,0,2)p <= 23
 0 <= v(1,0,2)n <= 36
 0 <= u(0,1,2)p <= 440
 0 <= u(0,1,2)n <= 440
 0 <= u(1,0,2)p <= 440
 0 <= u(1,0,2)n <= 440
 0 <= y(0,2,2) <= 1
 0 <= y(2,0,2) <= 1
 0 <= v(0,2,2)p <= 23
 0 <= v(0,2,2)n <= 35
 0 <= v(2,0,2)p <= 22
 0 <= v(2,0,2)n <= 36
 0 <= u(0,2,2)p <= 440
 0 <= u(0,2,2)n <= 440
 0 <= u(2,0,2)p <= 440
 0 <= u(2,0,2)n <= 440
 7 <= x(1,2) <= 37
 0 <= y(1,2,2) <= 1
 0 <= y(2,1,2) <= 1
 0 <= v(1,2,2)p <= 24
 0 <= v(1,2,2)n <= 35
 0 <= v(2,1,2)p <= 22
 0 <= v(2,1,2)n <= 37
 0 <= u(1,2,2)p <= 440
 0 <= u(1,2,2)n <= 440
 0 <= u(2,1,2)p <= 440
 0 <= u(2,1,2)n <= 440
 7 <= x(2,2) <= 36
End
